g3 0 1 0	# problem d4n12R0R7d001d05
 12 6 1 0 0	# vars, constraints, objectives, ranges, eqns
 4 1	# nonlinear constraints, objectives
 0 0	# network constraints: nonlinear, linear
 12 12 12	# nonlinear vars in constraints, objectives, both
 0 0 0 1	# linear network variables; functions; arith, flags
 0 0 0 0 0	# discrete variables: binary, integer, nonlinear (b,c,o)
 72 12	# nonzeros in Jacobian, gradients
 0 0	# max name lengths: constraints, variables
 0 0 0 0 0	# common exprs: b,c,o,c1,o1
b
0 0.26 2.45
0 0.76 2.55
0 0.53 2.48
0 0.74 2.77
0 0.51 2.43
0 0.96 2.7
0 0.37 2.38
0 0.86 2.6
0 0.31 2.48
0 0.38 2.03
0 0.82 2.18
0 0.79 2.7
r
2 96.658
2 150.808
2 395.774
2 114.228
2 80.675
2 98.083
C0
o2
o2
n9.07
v5
v10
C1
o54
5
o2
o2
n5.19
v5
v10
o2
o2
o2
n4.91
v0
v2
v5
o16
o2
o2
o2
n7.47
v0
v2
v8
o2
o2
o2
n8.84
v1
v1
v6
o2
o2
o2
n2.98
v5
v5
v6
C2
o54
18
o16
o2
o2
n1.97
v5
v10
o2
o2
o2
n5.08
v0
v2
v5
o2
o2
o2
n6.92
v0
v2
v8
o16
o2
o2
o2
n0.44
v1
v1
v6
o2
o2
o2
n4.41
v5
v5
v6
o2
o2
o2
o2
n0.98
v0
v1
v5
v9
o2
o2
o2
o2
n0.89
v0
v2
v5
v10
o2
o2
o2
o2
n5.75
v0
v2
v10
v11
o2
o2
o2
o2
n7.2
v0
v5
v5
v9
o2
o2
o2
o2
n5.51
v1
v1
v2
v9
o2
o2
o2
o2
n7.52
v1
v2
v2
v5
o2
o2
o2
o2
n5.36
v1
v8
v10
v11
o2
o2
o2
o2
n6.23
v2
v2
v4
v9
o2
o2
o2
o2
n9.43
v2
v2
v7
v10
o2
o2
o2
o2
n1.9
v3
v3
v5
v9
o2
o2
o2
o2
n8.86
v4
v5
v5
v10
o2
o2
o2
o2
n2.31
v6
v7
v9
v10
o16
o2
o2
o2
o2
n9.96
v7
v8
v9
v10
C3
o2
o2
n7.2
v5
v10
C4
n0
C5
n0
O0 0
o54
18
o2
o2
n8.72
v5
v10
o2
o2
o2
n9.81
v0
v2
v5
o2
o2
o2
n5.67
v0
v2
v8
o2
o2
o2
n3.02
v1
v1
v6
o2
o2
o2
n8.29
v5
v5
v6
o2
o2
o2
o2
n5.58
v0
v1
v5
v9
o2
o2
o2
o2
n0.65
v0
v2
v5
v10
o2
o2
o2
o2
n7
v0
v2
v10
v11
o2
o2
o2
o2
n4.34
v0
v5
v5
v9
o2
o2
o2
o2
n6.34
v1
v1
v2
v9
o2
o2
o2
o2
n5.37
v1
v2
v2
v5
o2
o2
o2
o2
n7.39
v1
v8
v10
v11
o2
o2
o2
o2
n2.95
v2
v2
v4
v9
o2
o2
o2
o2
n9.41
v2
v2
v7
v10
o2
o2
o2
o2
n8.93
v3
v3
v5
v9
o16
o2
o2
o2
o2
n5.14
v4
v5
v5
v10
o2
o2
o2
o2
n2.2
v6
v7
v9
v10
o2
o2
o2
o2
n2.55
v7
v8
v9
v10
k11
6
12
18
24
30
36
42
48
54
60
66
J0 12
0 4.3
1 7.36
2 0.34
3 7.51
4 9.96
5 -2.45
6 6.75
7 0.35
8 7.16
9 4.57
10 0.06
11 2.54
J1 12
0 8.65
1 1.52
2 7.9
3 3.28
4 -1.67
5 3.43
6 2.27
7 7.88
8 7.87
9 5.91
10 4.28
11 8.88
J2 12
0 1.43
1 -3.6
2 6.75
3 0.92
4 2.08
5 7.2
6 9.14
7 -9.22
8 0.83
9 1.42
10 2.51
11 0.1
J3 12
0 6.2
1 8.85
2 7.33
3 9.53
4 -9.01
5 3.65
6 9.52
7 9.83
8 -2.47
9 3.9
10 2.02
11 9.08
J4 12
0 6.93
1 1.91
2 -8.91
3 4.79
4 8.82
5 6.49
6 6.69
7 8.49
8 6.51
9 2.5
10 5.12
11 2.65
J5 12
0 9.73
1 3.81
2 0.37
3 4.1
4 7.19
5 4.65
6 10
7 3.19
8 2.07
9 2.96
10 7.18
11 8.75
G0 12
0 1.07
1 3.52
2 4.75
3 9.99
4 2.88
5 9.94
6 5.15
7 3.99
8 6.04
9 2.56
10 1.61
11 9.98
